\* ReverseNetwork *\
Minimize
TotalCost: 2633.10835874 w_0_0 + 4409.84175711 w_0_1 + 3428.90027198 w_0_2
 + 2562.63957129 w_1_0 + 4464.85458602 w_1_1 + 3421.68758739 w_1_2
 + 2721.62645079 w_2_0 + 4914.60891926 w_2_1 + 3681.52978046 w_2_2
 + 2894.41990507 w_3_0 + 4825.93924695 w_3_1 + 3458.38102226 w_3_2
 + 3014.20267588 w_4_0 + 4538.5523328 w_4_1 + 3118.39105313 w_4_2
 + 3452.8416167 w_5_0 + 3605.29198855 w_5_1 + 3126.93652424 w_5_2
 + 4457.43695763 w_6_0 + 3037.69752292 w_6_1 + 4052.77889968 w_6_2
 + 2840.26406221 w_7_0 + 4190.52715647 w_7_1 + 3303.41578028 w_7_2
 + 1196.3302097 x_0_0 + 1158.57414992 x_0_1 + 203.494830123 x_0_10
 + 313.283890868 x_0_11 + 83.1525999663 x_0_12 + 345.395106558 x_0_13
 + 1227.32591473 x_0_14 + 347.013710051 x_0_15 + 1324.70638265 x_0_16
 + 3290.58111247 x_0_17 + 1184.66873138 x_0_18 + 1351.37576018 x_0_19
 + 973.798428365 x_0_2 + 3346.82893572 x_0_20 + 512.073901596 x_0_21
 + 1221.91170871 x_0_22 + 68.8905795742 x_0_23 + 323.44246506 x_0_24
 + 216.061155869 x_0_25 + 1195.96065457 x_0_26 + 936.029855273 x_0_27
 + 1219.8808325 x_0_28 + 318.077052711 x_0_29 + 430.024386794 x_0_3
 + 1256.54948729 x_0_30 + 216.809699909 x_0_31 + 73.8236235746 x_0_32
 + 1313.80313908 x_0_33 + 1163.49889435 x_0_34 + 189.23548101 x_0_35
 + 965.505013184 x_0_36 + 1773.05461193 x_0_37 + 1223.18904543 x_0_38
 + 1671.07487204 x_0_39 + 1103.92050488 x_0_4 + 1055.65105696 x_0_5
 + 1104.96179382 x_0_6 + 146.366355585 x_0_7 + 535.346233833 x_0_8
 + 540.859823181 x_0_9 + 1062.9561359 x_1_0 + 1051.0452166 x_1_1
 + 340.19412536 x_1_10 + 400.568444084 x_1_11 + 134.884660985 x_1_12
 + 249.319417216 x_1_13 + 1091.54098258 x_1_14 + 222.174020351 x_1_15
 + 1253.20235261 x_1_16 + 3389.30699562 x_1_17 + 1050.17854232 x_1_18
 + 1214.37736312 x_1_19 + 842.835584722 x_1_2 + 3444.68129132 x_1_20
 + 615.297539248 x_1_21 + 1123.29030963 x_1_22 + 112.411049356 x_1_23
 + 451.905734624 x_1_24 + 278.28932596 x_1_25 + 1062.67779236 x_1_26
 + 820.876975795 x_1_27 + 1108.95692874 x_1_28 + 268.689095938 x_1_29
 + 292.981848873 x_1_3 + 1125.49458361 x_1_30 + 173.579397631 x_1_31
 + 118.341034947 x_1_32 + 1190.70697731 x_1_33 + 1026.57223782 x_1_34
 + 64.5146381175 x_1_35 + 843.427747983 x_1_36 + 1849.42433002 x_1_37
 + 1116.66052175 x_1_38 + 1737.73375322 x_1_39 + 976.851701512 x_1_4
 + 925.779335767 x_1_5 + 1016.78931262 x_1_6 + 253.003306291 x_1_7
 + 406.709246558 x_1_8 + 639.050387699 x_1_9 + 628.45240993 x_2_0
 + 995.483256837 x_2_1 + 1145.45607802 x_2_10 + 1212.20480899 x_2_11
 + 907.81473488 x_2_12 + 636.534323466 x_2_13 + 562.87716821 x_2_14
 + 609.8971248 x_2_15 + 1418.84112384 x_2_16 + 4173.22174238 x_2_17
 + 586.777382267 x_2_18 + 564.396458639 x_2_19 + 579.195617551 x_2_2
 + 4226.18601103 x_2_20 + 1432.30023258 x_2_21 + 1124.19731395 x_2_22
 + 939.989863941 x_2_23 + 1279.3315002 x_2_24 + 953.716081751 x_2_25
 + 630.806364216 x_2_26 + 792.379642888 x_2_27 + 999.66584071 x_2_28
 + 731.914730258 x_2_29 + 566.227773584 x_2_3 + 725.32928289 x_2_30
 + 913.962932328 x_2_31 + 945.143946819 x_2_32 + 908.055238913 x_2_33
 + 440.61510903 x_2_34 + 803.821540288 x_2_35 + 102.919700559 x_2_36
 + 2588.00610783 x_2_37 + 1048.65557487 x_2_38 + 2451.726425 x_2_39
 + 711.954604613 x_2_4 + 635.377402524 x_2_5 + 1132.30647446 x_2_6
 + 1010.36280742 x_2_7 + 421.994640709 x_2_8 + 1450.437262 x_2_9
 + 47.1312777555 x_3_0 + 465.159311729 x_3_1 + 1351.84659674 x_3_10
 + 1279.66121536 x_3_11 + 1143.7330671 x_3_12 + 962.604387514 x_3_13
 + 139.019094994 x_3_14 + 875.468667171 x_3_15 + 922.627489635 x_3_16
 + 4024.26727364 x_3_17 + 61.3214584367 x_3_18 + 320.134412464 x_3_19
 + 184.570420706 x_3_2 + 4071.62082327 x_3_20 + 1480.99126155 x_3_21
 + 593.546592792 x_3_22 + 1099.53822397 x_3_23 + 1421.09440247 x_3_24
 + 1255.2234659 x_3_25 + 46.3298850481 x_3_26 + 382.3147155 x_3_27
 + 439.554914657 x_3_28 + 1081.41646242 x_3_29 + 738.061347202 x_3_3
 + 125.547012336 x_3_30 + 994.223952273 x_3_31 + 1100.59356511 x_3_32
 + 301.514086988 x_3_33 + 215.062981558 x_3_34 + 960.660056732 x_3_35
 + 710.743396073 x_3_36 + 2408.48211581 x_3_37 + 498.60515606 x_3_38
 + 2247.92083644 x_3_39 + 158.395776921 x_3_4 + 127.73056285 x_3_5
 + 665.506153998 x_3_6 + 1264.46422987 x_3_7 + 739.380280732 x_3_8
 + 1482.72566459 x_3_9 + 627.563158405 x_4_0 + 145.707920268 x_4_1
 + 1326.20989022 x_4_10 + 1132.01020666 x_4_11 + 1196.53052271 x_4_12
 + 1151.81476823 x_4_13 + 740.941693648 x_4_14 + 1046.40363709 x_4_15
 + 318.189822093 x_4_16 + 3523.94969458 x_4_17 + 665.003339854 x_4_18
 + 915.653310029 x_4_19 + 537.788744873 x_4_2 + 3567.2718256 x_4_20
 + 1273.55282041 x_4_21 + 70.8984539686 x_4_22 + 1092.65318483 x_4_23
 + 1317.53806159 x_4_24 + 1342.89564801 x_4_25 + 624.376544357 x_4_26
 + 323.839438113 x_4_27 + 202.690434149 x_4_28 + 1255.80497425 x_4_29
 + 900.092003276 x_4_3 + 577.829239893 x_4_30 + 947.136625667 x_4_31
 + 1089.42766421 x_4_32 + 428.23184145 x_4_33 + 815.629314081 x_4_34
 + 1000.40348954 x_4_35 + 1206.6976267 x_4_36 + 1918.21744876 x_4_37
 + 148.115062137 x_4_38 + 1745.925167 x_4_39 + 449.670193522 x_4_4
 + 508.106300942 x_4_5 + 93.2535263279 x_4_6 + 1304.39794103 x_4_7
 + 1013.48031616 x_4_8 + 1258.62911119 x_4_9 + 2148.42188161 x_5_0
 + 1756.73914234 x_5_1 + 1421.42016608 x_5_10 + 1175.6767743 x_5_11
 + 1570.84545359 x_5_12 + 1807.63042283 x_5_13 + 2242.64931464 x_5_14
 + 1760.17213618 x_5_15 + 1462.15778241 x_5_16 + 1916.02682303 x_5_17
 + 2168.33123774 x_5_18 + 2420.55472155 x_5_19 + 1945.93495185 x_5_2
 + 1964.29753982 x_5_20 + 1005.40668162 x_5_21 + 1692.82651299 x_5_22
 + 1459.30031844 x_5_23 + 1247.34255593 x_5_24 + 1660.02374719 x_5_25
 + 2145.98489853 x_5_26 + 1728.0013596 x_5_27 + 1827.88444505 x_5_28
 + 1805.80551102 x_5_29 + 1736.6957439 x_5_3 + 2141.78798733 x_5_30
 + 1411.49523063 x_5_31 + 1451.68104344 x_5_32 + 2045.72043094 x_5_33
 + 2256.22361262 x_5_34 + 1547.84922419 x_5_35 + 2336.03330002 x_5_36
 + 303.34819874 x_5_37 + 1779.32381675 x_5_38 + 185.590878125 x_5_39
 + 1968.09434139 x_5_4 + 1981.13721581 x_5_5 + 1540.24172529 x_5_6
 + 1556.81951037 x_5_7 + 1909.2412375 x_5_8 + 968.010620561 x_5_9
 + 3912.11846133 x_6_0 + 3494.21379755 x_6_1 + 3070.29961322 x_6_10
 + 2880.33349854 x_6_11 + 3263.86592114 x_6_12 + 3525.96236563 x_6_13
 + 4009.68584018 x_6_14 + 3494.22541682 x_6_15 + 3134.43296288 x_6_16
 + 223.850690145 x_6_17 + 3934.30784879 x_6_18 + 4188.92704867 x_6_19
 + 3715.5955213 x_6_2 + 233.876374743 x_6_20 + 2675.32336016 x_6_21
 + 3412.81239137 x_6_22 + 3172.08404145 x_6_23 + 2894.36724164 x_6_24
 + 3320.17473956 x_6_25 + 3909.55198617 x_6_26 + 3491.82260985 x_6_27
 + 3560.9296059 x_6_28 + 3501.77875069 x_6_29 + 3489.95925568 x_6_3
 + 3898.53654433 x_6_30 + 3151.26354383 x_6_31 + 3165.00004701 x_6_32
 + 3784.68052909 x_6_33 + 4027.5899157 x_6_34 + 3280.60926427 x_6_35
 + 4092.30148882 x_6_36 + 1469.6855002 x_6_37 + 3507.14432981 x_6_38
 + 1626.07725668 x_6_39 + 3728.84732369 x_6_4 + 3746.97098795 x_6_5
 + 3271.63514583 x_6_6 + 3220.14010428 x_6_7 + 3657.06323876 x_6_8
 + 2646.11520696 x_6_9 + 1415.34188977 x_7_0 + 1247.12562326 x_7_1
 + 309.422466655 x_7_10 + 90.1010668989 x_7_11 + 457.532006076 x_7_12
 + 720.153622402 x_7_13 + 1470.27714027 x_7_14 + 701.23835651 x_7_15
 + 1278.08387963 x_7_16 + 2912.80647581 x_7_17 + 1414.1586857 x_7_18
 + 1618.0600974 x_7_19 + 1183.87077729 x_7_2 + 2968.76077113 x_7_20
 + 135.418110908 x_7_21 + 1272.9589152 x_7_22 + 368.488884725 x_7_23
 + 161.721256624 x_7_24 + 538.947903728 x_7_25 + 1414.21712204 x_7_26
 + 1070.33759036 x_7_27 + 1318.74285955 x_7_28 + 695.743363009 x_7_29
 + 736.865608974 x_7_3 + 1455.88414522 x_7_30 + 394.150092646 x_7_31
 + 361.96835758 x_7_32 + 1464.12279274 x_7_33 + 1430.33189491 x_7_34
 + 495.050108775 x_7_35 + 1320.5272369 x_7_36 + 1399.3819419 x_7_37
 + 1304.17016029 x_7_38 + 1305.65007886 x_7_39 + 1284.33719876 x_7_4
 + 1254.85559247 x_7_5 + 1126.91816133 x_7_6 + 435.843813208 x_7_7
 + 880.46583691 x_7_8 + 161.729808824 x_7_9 + 3200000 y_0 + 2400000 y_1
 + 2100000 y_2 + 2500000 y_3 + 2700000 y_4 + 2500000 y_5 + 1700000 y_6
 + 1900000 y_7 + 8500000 z_0 + 6900000 z_1 + 7500000 z_2
Subject To
CapGV_0: w_0_0 + w_1_0 + w_2_0 + w_3_0 + w_4_0 + w_5_0 + w_6_0 + w_7_0
 - 7500 z_0 <= 0
CapGV_1: w_0_1 + w_1_1 + w_2_1 + w_3_1 + w_4_1 + w_5_1 + w_6_1 + w_7_1
 - 5500 z_1 <= 0
CapGV_2: w_0_2 + w_1_2 + w_2_2 + w_3_2 + w_4_2 + w_5_2 + w_6_2 + w_7_2
 - 6500 z_2 <= 0
CapIS_0: x_0_0 + x_0_1 + x_0_10 + x_0_11 + x_0_12 + x_0_13 + x_0_14 + x_0_15
 + x_0_16 + x_0_17 + x_0_18 + x_0_19 + x_0_2 + x_0_20 + x_0_21 + x_0_22
 + x_0_23 + x_0_24 + x_0_25 + x_0_26 + x_0_27 + x_0_28 + x_0_29 + x_0_3
 + x_0_30 + x_0_31 + x_0_32 + x_0_33 + x_0_34 + x_0_35 + x_0_36 + x_0_37
 + x_0_38 + x_0_39 + x_0_4 + x_0_5 + x_0_6 + x_0_7 + x_0_8 + x_0_9 - 2800 y_0
 <= 0
CapIS_1: x_1_0 + x_1_1 + x_1_10 + x_1_11 + x_1_12 + x_1_13 + x_1_14 + x_1_15
 + x_1_16 + x_1_17 + x_1_18 + x_1_19 + x_1_2 + x_1_20 + x_1_21 + x_1_22
 + x_1_23 + x_1_24 + x_1_25 + x_1_26 + x_1_27 + x_1_28 + x_1_29 + x_1_3
 + x_1_30 + x_1_31 + x_1_32 + x_1_33 + x_1_34 + x_1_35 + x_1_36 + x_1_37
 + x_1_38 + x_1_39 + x_1_4 + x_1_5 + x_1_6 + x_1_7 + x_1_8 + x_1_9 - 2000 y_1
 <= 0
CapIS_2: x_2_0 + x_2_1 + x_2_10 + x_2_11 + x_2_12 + x_2_13 + x_2_14 + x_2_15
 + x_2_16 + x_2_17 + x_2_18 + x_2_19 + x_2_2 + x_2_20 + x_2_21 + x_2_22
 + x_2_23 + x_2_24 + x_2_25 + x_2_26 + x_2_27 + x_2_28 + x_2_29 + x_2_3
 + x_2_30 + x_2_31 + x_2_32 + x_2_33 + x_2_34 + x_2_35 + x_2_36 + x_2_37
 + x_2_38 + x_2_39 + x_2_4 + x_2_5 + x_2_6 + x_2_7 + x_2_8 + x_2_9 - 1800 y_2
 <= 0
CapIS_3: x_3_0 + x_3_1 + x_3_10 + x_3_11 + x_3_12 + x_3_13 + x_3_14 + x_3_15
 + x_3_16 + x_3_17 + x_3_18 + x_3_19 + x_3_2 + x_3_20 + x_3_21 + x_3_22
 + x_3_23 + x_3_24 + x_3_25 + x_3_26 + x_3_27 + x_3_28 + x_3_29 + x_3_3
 + x_3_30 + x_3_31 + x_3_32 + x_3_33 + x_3_34 + x_3_35 + x_3_36 + x_3_37
 + x_3_38 + x_3_39 + x_3_4 + x_3_5 + x_3_6 + x_3_7 + x_3_8 + x_3_9 - 2200 y_3
 <= 0
CapIS_4: x_4_0 + x_4_1 + x_4_10 + x_4_11 + x_4_12 + x_4_13 + x_4_14 + x_4_15
 + x_4_16 + x_4_17 + x_4_18 + x_4_19 + x_4_2 + x_4_20 + x_4_21 + x_4_22
 + x_4_23 + x_4_24 + x_4_25 + x_4_26 + x_4_27 + x_4_28 + x_4_29 + x_4_3
 + x_4_30 + x_4_31 + x_4_32 + x_4_33 + x_4_34 + x_4_35 + x_4_36 + x_4_37
 + x_4_38 + x_4_39 + x_4_4 + x_4_5 + x_4_6 + x_4_7 + x_4_8 + x_4_9 - 2400 y_4
 <= 0
CapIS_5: x_5_0 + x_5_1 + x_5_10 + x_5_11 + x_5_12 + x_5_13 + x_5_14 + x_5_15
 + x_5_16 + x_5_17 + x_5_18 + x_5_19 + x_5_2 + x_5_20 + x_5_21 + x_5_22
 + x_5_23 + x_5_24 + x_5_25 + x_5_26 + x_5_27 + x_5_28 + x_5_29 + x_5_3
 + x_5_30 + x_5_31 + x_5_32 + x_5_33 + x_5_34 + x_5_35 + x_5_36 + x_5_37
 + x_5_38 + x_5_39 + x_5_4 + x_5_5 + x_5_6 + x_5_7 + x_5_8 + x_5_9 - 2100 y_5
 <= 0
CapIS_6: x_6_0 + x_6_1 + x_6_10 + x_6_11 + x_6_12 + x_6_13 + x_6_14 + x_6_15
 + x_6_16 + x_6_17 + x_6_18 + x_6_19 + x_6_2 + x_6_20 + x_6_21 + x_6_22
 + x_6_23 + x_6_24 + x_6_25 + x_6_26 + x_6_27 + x_6_28 + x_6_29 + x_6_3
 + x_6_30 + x_6_31 + x_6_32 + x_6_33 + x_6_34 + x_6_35 + x_6_36 + x_6_37
 + x_6_38 + x_6_39 + x_6_4 + x_6_5 + x_6_6 + x_6_7 + x_6_8 + x_6_9 - 1200 y_6
 <= 0
CapIS_7: x_7_0 + x_7_1 + x_7_10 + x_7_11 + x_7_12 + x_7_13 + x_7_14 + x_7_15
 + x_7_16 + x_7_17 + x_7_18 + x_7_19 + x_7_2 + x_7_20 + x_7_21 + x_7_22
 + x_7_23 + x_7_24 + x_7_25 + x_7_26 + x_7_27 + x_7_28 + x_7_29 + x_7_3
 + x_7_30 + x_7_31 + x_7_32 + x_7_33 + x_7_34 + x_7_35 + x_7_36 + x_7_37
 + x_7_38 + x_7_39 + x_7_4 + x_7_5 + x_7_6 + x_7_7 + x_7_8 + x_7_9 - 1600 y_7
 <= 0
Cover_0: x_0_0 + x_1_0 + x_2_0 + x_3_0 + x_4_0 + x_5_0 + x_6_0 + x_7_0 = 457
Cover_1: x_0_1 + x_1_1 + x_2_1 + x_3_1 + x_4_1 + x_5_1 + x_6_1 + x_7_1 = 107
Cover_10: x_0_10 + x_1_10 + x_2_10 + x_3_10 + x_4_10 + x_5_10 + x_6_10
 + x_7_10 = 164
Cover_11: x_0_11 + x_1_11 + x_2_11 + x_3_11 + x_4_11 + x_5_11 + x_6_11
 + x_7_11 = 184
Cover_12: x_0_12 + x_1_12 + x_2_12 + x_3_12 + x_4_12 + x_5_12 + x_6_12
 + x_7_12 = 108
Cover_13: x_0_13 + x_1_13 + x_2_13 + x_3_13 + x_4_13 + x_5_13 + x_6_13
 + x_7_13 = 174
Cover_14: x_0_14 + x_1_14 + x_2_14 + x_3_14 + x_4_14 + x_5_14 + x_6_14
 + x_7_14 = 173
Cover_15: x_0_15 + x_1_15 + x_2_15 + x_3_15 + x_4_15 + x_5_15 + x_6_15
 + x_7_15 = 116
Cover_16: x_0_16 + x_1_16 + x_2_16 + x_3_16 + x_4_16 + x_5_16 + x_6_16
 + x_7_16 = 125
Cover_17: x_0_17 + x_1_17 + x_2_17 + x_3_17 + x_4_17 + x_5_17 + x_6_17
 + x_7_17 = 172
Cover_18: x_0_18 + x_1_18 + x_2_18 + x_3_18 + x_4_18 + x_5_18 + x_6_18
 + x_7_18 = 126
Cover_19: x_0_19 + x_1_19 + x_2_19 + x_3_19 + x_4_19 + x_5_19 + x_6_19
 + x_7_19 = 89
Cover_2: x_0_2 + x_1_2 + x_2_2 + x_3_2 + x_4_2 + x_5_2 + x_6_2 + x_7_2 = 284
Cover_20: x_0_20 + x_1_20 + x_2_20 + x_3_20 + x_4_20 + x_5_20 + x_6_20
 + x_7_20 = 339
Cover_21: x_0_21 + x_1_21 + x_2_21 + x_3_21 + x_4_21 + x_5_21 + x_6_21
 + x_7_21 = 168
Cover_22: x_0_22 + x_1_22 + x_2_22 + x_3_22 + x_4_22 + x_5_22 + x_6_22
 + x_7_22 = 171
Cover_23: x_0_23 + x_1_23 + x_2_23 + x_3_23 + x_4_23 + x_5_23 + x_6_23
 + x_7_23 = 273
Cover_24: x_0_24 + x_1_24 + x_2_24 + x_3_24 + x_4_24 + x_5_24 + x_6_24
 + x_7_24 = 142
Cover_25: x_0_25 + x_1_25 + x_2_25 + x_3_25 + x_4_25 + x_5_25 + x_6_25
 + x_7_25 = 249
Cover_26: x_0_26 + x_1_26 + x_2_26 + x_3_26 + x_4_26 + x_5_26 + x_6_26
 + x_7_26 = 392
Cover_27: x_0_27 + x_1_27 + x_2_27 + x_3_27 + x_4_27 + x_5_27 + x_6_27
 + x_7_27 = 154
Cover_28: x_0_28 + x_1_28 + x_2_28 + x_3_28 + x_4_28 + x_5_28 + x_6_28
 + x_7_28 = 192
Cover_29: x_0_29 + x_1_29 + x_2_29 + x_3_29 + x_4_29 + x_5_29 + x_6_29
 + x_7_29 = 364
Cover_3: x_0_3 + x_1_3 + x_2_3 + x_3_3 + x_4_3 + x_5_3 + x_6_3 + x_7_3 = 139
Cover_30: x_0_30 + x_1_30 + x_2_30 + x_3_30 + x_4_30 + x_5_30 + x_6_30
 + x_7_30 = 284
Cover_31: x_0_31 + x_1_31 + x_2_31 + x_3_31 + x_4_31 + x_5_31 + x_6_31
 + x_7_31 = 309
Cover_32: x_0_32 + x_1_32 + x_2_32 + x_3_32 + x_4_32 + x_5_32 + x_6_32
 + x_7_32 = 77
Cover_33: x_0_33 + x_1_33 + x_2_33 + x_3_33 + x_4_33 + x_5_33 + x_6_33
 + x_7_33 = 290
Cover_34: x_0_34 + x_1_34 + x_2_34 + x_3_34 + x_4_34 + x_5_34 + x_6_34
 + x_7_34 = 187
Cover_35: x_0_35 + x_1_35 + x_2_35 + x_3_35 + x_4_35 + x_5_35 + x_6_35
 + x_7_35 = 414
Cover_36: x_0_36 + x_1_36 + x_2_36 + x_3_36 + x_4_36 + x_5_36 + x_6_36
 + x_7_36 = 258
Cover_37: x_0_37 + x_1_37 + x_2_37 + x_3_37 + x_4_37 + x_5_37 + x_6_37
 + x_7_37 = 71
Cover_38: x_0_38 + x_1_38 + x_2_38 + x_3_38 + x_4_38 + x_5_38 + x_6_38
 + x_7_38 = 265
Cover_39: x_0_39 + x_1_39 + x_2_39 + x_3_39 + x_4_39 + x_5_39 + x_6_39
 + x_7_39 = 447
Cover_4: x_0_4 + x_1_4 + x_2_4 + x_3_4 + x_4_4 + x_5_4 + x_6_4 + x_7_4 = 214
Cover_5: x_0_5 + x_1_5 + x_2_5 + x_3_5 + x_4_5 + x_5_5 + x_6_5 + x_7_5 = 240
Cover_6: x_0_6 + x_1_6 + x_2_6 + x_3_6 + x_4_6 + x_5_6 + x_6_6 + x_7_6 = 219
Cover_7: x_0_7 + x_1_7 + x_2_7 + x_3_7 + x_4_7 + x_5_7 + x_6_7 + x_7_7 = 68
Cover_8: x_0_8 + x_1_8 + x_2_8 + x_3_8 + x_4_8 + x_5_8 + x_6_8 + x_7_8 = 279
Cover_9: x_0_9 + x_1_9 + x_2_9 + x_3_9 + x_4_9 + x_5_9 + x_6_9 + x_7_9 = 148
Flow_0: - w_0_0 - w_0_1 - w_0_2 + x_0_0 + x_0_1 + x_0_10 + x_0_11 + x_0_12
 + x_0_13 + x_0_14 + x_0_15 + x_0_16 + x_0_17 + x_0_18 + x_0_19 + x_0_2
 + x_0_20 + x_0_21 + x_0_22 + x_0_23 + x_0_24 + x_0_25 + x_0_26 + x_0_27
 + x_0_28 + x_0_29 + x_0_3 + x_0_30 + x_0_31 + x_0_32 + x_0_33 + x_0_34
 + x_0_35 + x_0_36 + x_0_37 + x_0_38 + x_0_39 + x_0_4 + x_0_5 + x_0_6 + x_0_7
 + x_0_8 + x_0_9 = 0
Flow_1: - w_1_0 - w_1_1 - w_1_2 + x_1_0 + x_1_1 + x_1_10 + x_1_11 + x_1_12
 + x_1_13 + x_1_14 + x_1_15 + x_1_16 + x_1_17 + x_1_18 + x_1_19 + x_1_2
 + x_1_20 + x_1_21 + x_1_22 + x_1_23 + x_1_24 + x_1_25 + x_1_26 + x_1_27
 + x_1_28 + x_1_29 + x_1_3 + x_1_30 + x_1_31 + x_1_32 + x_1_33 + x_1_34
 + x_1_35 + x_1_36 + x_1_37 + x_1_38 + x_1_39 + x_1_4 + x_1_5 + x_1_6 + x_1_7
 + x_1_8 + x_1_9 = 0
Flow_2: - w_2_0 - w_2_1 - w_2_2 + x_2_0 + x_2_1 + x_2_10 + x_2_11 + x_2_12
 + x_2_13 + x_2_14 + x_2_15 + x_2_16 + x_2_17 + x_2_18 + x_2_19 + x_2_2
 + x_2_20 + x_2_21 + x_2_22 + x_2_23 + x_2_24 + x_2_25 + x_2_26 + x_2_27
 + x_2_28 + x_2_29 + x_2_3 + x_2_30 + x_2_31 + x_2_32 + x_2_33 + x_2_34
 + x_2_35 + x_2_36 + x_2_37 + x_2_38 + x_2_39 + x_2_4 + x_2_5 + x_2_6 + x_2_7
 + x_2_8 + x_2_9 = 0
Flow_3: - w_3_0 - w_3_1 - w_3_2 + x_3_0 + x_3_1 + x_3_10 + x_3_11 + x_3_12
 + x_3_13 + x_3_14 + x_3_15 + x_3_16 + x_3_17 + x_3_18 + x_3_19 + x_3_2
 + x_3_20 + x_3_21 + x_3_22 + x_3_23 + x_3_24 + x_3_25 + x_3_26 + x_3_27
 + x_3_28 + x_3_29 + x_3_3 + x_3_30 + x_3_31 + x_3_32 + x_3_33 + x_3_34
 + x_3_35 + x_3_36 + x_3_37 + x_3_38 + x_3_39 + x_3_4 + x_3_5 + x_3_6 + x_3_7
 + x_3_8 + x_3_9 = 0
Flow_4: - w_4_0 - w_4_1 - w_4_2 + x_4_0 + x_4_1 + x_4_10 + x_4_11 + x_4_12
 + x_4_13 + x_4_14 + x_4_15 + x_4_16 + x_4_17 + x_4_18 + x_4_19 + x_4_2
 + x_4_20 + x_4_21 + x_4_22 + x_4_23 + x_4_24 + x_4_25 + x_4_26 + x_4_27
 + x_4_28 + x_4_29 + x_4_3 + x_4_30 + x_4_31 + x_4_32 + x_4_33 + x_4_34
 + x_4_35 + x_4_36 + x_4_37 + x_4_38 + x_4_39 + x_4_4 + x_4_5 + x_4_6 + x_4_7
 + x_4_8 + x_4_9 = 0
Flow_5: - w_5_0 - w_5_1 - w_5_2 + x_5_0 + x_5_1 + x_5_10 + x_5_11 + x_5_12
 + x_5_13 + x_5_14 + x_5_15 + x_5_16 + x_5_17 + x_5_18 + x_5_19 + x_5_2
 + x_5_20 + x_5_21 + x_5_22 + x_5_23 + x_5_24 + x_5_25 + x_5_26 + x_5_27
 + x_5_28 + x_5_29 + x_5_3 + x_5_30 + x_5_31 + x_5_32 + x_5_33 + x_5_34
 + x_5_35 + x_5_36 + x_5_37 + x_5_38 + x_5_39 + x_5_4 + x_5_5 + x_5_6 + x_5_7
 + x_5_8 + x_5_9 = 0
Flow_6: - w_6_0 - w_6_1 - w_6_2 + x_6_0 + x_6_1 + x_6_10 + x_6_11 + x_6_12
 + x_6_13 + x_6_14 + x_6_15 + x_6_16 + x_6_17 + x_6_18 + x_6_19 + x_6_2
 + x_6_20 + x_6_21 + x_6_22 + x_6_23 + x_6_24 + x_6_25 + x_6_26 + x_6_27
 + x_6_28 + x_6_29 + x_6_3 + x_6_30 + x_6_31 + x_6_32 + x_6_33 + x_6_34
 + x_6_35 + x_6_36 + x_6_37 + x_6_38 + x_6_39 + x_6_4 + x_6_5 + x_6_6 + x_6_7
 + x_6_8 + x_6_9 = 0
Flow_7: - w_7_0 - w_7_1 - w_7_2 + x_7_0 + x_7_1 + x_7_10 + x_7_11 + x_7_12
 + x_7_13 + x_7_14 + x_7_15 + x_7_16 + x_7_17 + x_7_18 + x_7_19 + x_7_2
 + x_7_20 + x_7_21 + x_7_22 + x_7_23 + x_7_24 + x_7_25 + x_7_26 + x_7_27
 + x_7_28 + x_7_29 + x_7_3 + x_7_30 + x_7_31 + x_7_32 + x_7_33 + x_7_34
 + x_7_35 + x_7_36 + x_7_37 + x_7_38 + x_7_39 + x_7_4 + x_7_5 + x_7_6 + x_7_7
 + x_7_8 + x_7_9 = 0
Bounds
 x_0_0 <= 457
 x_0_1 <= 107
 x_0_10 <= 164
 x_0_11 <= 184
 x_0_12 <= 108
 x_0_13 <= 174
 x_0_14 <= 173
 x_0_15 <= 116
 x_0_16 <= 125
 x_0_17 <= 172
 x_0_18 <= 126
 x_0_19 <= 89
 x_0_2 <= 284
 x_0_20 <= 339
 x_0_21 <= 168
 x_0_22 <= 171
 x_0_23 <= 273
 x_0_24 <= 142
 x_0_25 <= 249
 x_0_26 <= 392
 x_0_27 <= 154
 x_0_28 <= 192
 x_0_29 <= 364
 x_0_3 <= 139
 x_0_30 <= 284
 x_0_31 <= 309
 x_0_32 <= 77
 x_0_33 <= 290
 x_0_34 <= 187
 x_0_35 <= 414
 x_0_36 <= 258
 x_0_37 <= 71
 x_0_38 <= 265
 x_0_39 <= 447
 x_0_4 <= 214
 x_0_5 <= 240
 x_0_6 <= 219
 x_0_7 <= 68
 x_0_8 <= 279
 x_0_9 <= 148
 x_1_0 <= 457
 x_1_1 <= 107
 x_1_10 <= 164
 x_1_11 <= 184
 x_1_12 <= 108
 x_1_13 <= 174
 x_1_14 <= 173
 x_1_15 <= 116
 x_1_16 <= 125
 x_1_17 <= 172
 x_1_18 <= 126
 x_1_19 <= 89
 x_1_2 <= 284
 x_1_20 <= 339
 x_1_21 <= 168
 x_1_22 <= 171
 x_1_23 <= 273
 x_1_24 <= 142
 x_1_25 <= 249
 x_1_26 <= 392
 x_1_27 <= 154
 x_1_28 <= 192
 x_1_29 <= 364
 x_1_3 <= 139
 x_1_30 <= 284
 x_1_31 <= 309
 x_1_32 <= 77
 x_1_33 <= 290
 x_1_34 <= 187
 x_1_35 <= 414
 x_1_36 <= 258
 x_1_37 <= 71
 x_1_38 <= 265
 x_1_39 <= 447
 x_1_4 <= 214
 x_1_5 <= 240
 x_1_6 <= 219
 x_1_7 <= 68
 x_1_8 <= 279
 x_1_9 <= 148
 x_2_0 <= 457
 x_2_1 <= 107
 x_2_10 <= 164
 x_2_11 <= 184
 x_2_12 <= 108
 x_2_13 <= 174
 x_2_14 <= 173
 x_2_15 <= 116
 x_2_16 <= 125
 x_2_17 <= 172
 x_2_18 <= 126
 x_2_19 <= 89
 x_2_2 <= 284
 x_2_20 <= 339
 x_2_21 <= 168
 x_2_22 <= 171
 x_2_23 <= 273
 x_2_24 <= 142
 x_2_25 <= 249
 x_2_26 <= 392
 x_2_27 <= 154
 x_2_28 <= 192
 x_2_29 <= 364
 x_2_3 <= 139
 x_2_30 <= 284
 x_2_31 <= 309
 x_2_32 <= 77
 x_2_33 <= 290
 x_2_34 <= 187
 x_2_35 <= 414
 x_2_36 <= 258
 x_2_37 <= 71
 x_2_38 <= 265
 x_2_39 <= 447
 x_2_4 <= 214
 x_2_5 <= 240
 x_2_6 <= 219
 x_2_7 <= 68
 x_2_8 <= 279
 x_2_9 <= 148
 x_3_0 <= 457
 x_3_1 <= 107
 x_3_10 <= 164
 x_3_11 <= 184
 x_3_12 <= 108
 x_3_13 <= 174
 x_3_14 <= 173
 x_3_15 <= 116
 x_3_16 <= 125
 x_3_17 <= 172
 x_3_18 <= 126
 x_3_19 <= 89
 x_3_2 <= 284
 x_3_20 <= 339
 x_3_21 <= 168
 x_3_22 <= 171
 x_3_23 <= 273
 x_3_24 <= 142
 x_3_25 <= 249
 x_3_26 <= 392
 x_3_27 <= 154
 x_3_28 <= 192
 x_3_29 <= 364
 x_3_3 <= 139
 x_3_30 <= 284
 x_3_31 <= 309
 x_3_32 <= 77
 x_3_33 <= 290
 x_3_34 <= 187
 x_3_35 <= 414
 x_3_36 <= 258
 x_3_37 <= 71
 x_3_38 <= 265
 x_3_39 <= 447
 x_3_4 <= 214
 x_3_5 <= 240
 x_3_6 <= 219
 x_3_7 <= 68
 x_3_8 <= 279
 x_3_9 <= 148
 x_4_0 <= 457
 x_4_1 <= 107
 x_4_10 <= 164
 x_4_11 <= 184
 x_4_12 <= 108
 x_4_13 <= 174
 x_4_14 <= 173
 x_4_15 <= 116
 x_4_16 <= 125
 x_4_17 <= 172
 x_4_18 <= 126
 x_4_19 <= 89
 x_4_2 <= 284
 x_4_20 <= 339
 x_4_21 <= 168
 x_4_22 <= 171
 x_4_23 <= 273
 x_4_24 <= 142
 x_4_25 <= 249
 x_4_26 <= 392
 x_4_27 <= 154
 x_4_28 <= 192
 x_4_29 <= 364
 x_4_3 <= 139
 x_4_30 <= 284
 x_4_31 <= 309
 x_4_32 <= 77
 x_4_33 <= 290
 x_4_34 <= 187
 x_4_35 <= 414
 x_4_36 <= 258
 x_4_37 <= 71
 x_4_38 <= 265
 x_4_39 <= 447
 x_4_4 <= 214
 x_4_5 <= 240
 x_4_6 <= 219
 x_4_7 <= 68
 x_4_8 <= 279
 x_4_9 <= 148
 x_5_0 <= 457
 x_5_1 <= 107
 x_5_10 <= 164
 x_5_11 <= 184
 x_5_12 <= 108
 x_5_13 <= 174
 x_5_14 <= 173
 x_5_15 <= 116
 x_5_16 <= 125
 x_5_17 <= 172
 x_5_18 <= 126
 x_5_19 <= 89
 x_5_2 <= 284
 x_5_20 <= 339
 x_5_21 <= 168
 x_5_22 <= 171
 x_5_23 <= 273
 x_5_24 <= 142
 x_5_25 <= 249
 x_5_26 <= 392
 x_5_27 <= 154
 x_5_28 <= 192
 x_5_29 <= 364
 x_5_3 <= 139
 x_5_30 <= 284
 x_5_31 <= 309
 x_5_32 <= 77
 x_5_33 <= 290
 x_5_34 <= 187
 x_5_35 <= 414
 x_5_36 <= 258
 x_5_37 <= 71
 x_5_38 <= 265
 x_5_39 <= 447
 x_5_4 <= 214
 x_5_5 <= 240
 x_5_6 <= 219
 x_5_7 <= 68
 x_5_8 <= 279
 x_5_9 <= 148
 x_6_0 <= 457
 x_6_1 <= 107
 x_6_10 <= 164
 x_6_11 <= 184
 x_6_12 <= 108
 x_6_13 <= 174
 x_6_14 <= 173
 x_6_15 <= 116
 x_6_16 <= 125
 x_6_17 <= 172
 x_6_18 <= 126
 x_6_19 <= 89
 x_6_2 <= 284
 x_6_20 <= 339
 x_6_21 <= 168
 x_6_22 <= 171
 x_6_23 <= 273
 x_6_24 <= 142
 x_6_25 <= 249
 x_6_26 <= 392
 x_6_27 <= 154
 x_6_28 <= 192
 x_6_29 <= 364
 x_6_3 <= 139
 x_6_30 <= 284
 x_6_31 <= 309
 x_6_32 <= 77
 x_6_33 <= 290
 x_6_34 <= 187
 x_6_35 <= 414
 x_6_36 <= 258
 x_6_37 <= 71
 x_6_38 <= 265
 x_6_39 <= 447
 x_6_4 <= 214
 x_6_5 <= 240
 x_6_6 <= 219
 x_6_7 <= 68
 x_6_8 <= 279
 x_6_9 <= 148
 x_7_0 <= 457
 x_7_1 <= 107
 x_7_10 <= 164
 x_7_11 <= 184
 x_7_12 <= 108
 x_7_13 <= 174
 x_7_14 <= 173
 x_7_15 <= 116
 x_7_16 <= 125
 x_7_17 <= 172
 x_7_18 <= 126
 x_7_19 <= 89
 x_7_2 <= 284
 x_7_20 <= 339
 x_7_21 <= 168
 x_7_22 <= 171
 x_7_23 <= 273
 x_7_24 <= 142
 x_7_25 <= 249
 x_7_26 <= 392
 x_7_27 <= 154
 x_7_28 <= 192
 x_7_29 <= 364
 x_7_3 <= 139
 x_7_30 <= 284
 x_7_31 <= 309
 x_7_32 <= 77
 x_7_33 <= 290
 x_7_34 <= 187
 x_7_35 <= 414
 x_7_36 <= 258
 x_7_37 <= 71
 x_7_38 <= 265
 x_7_39 <= 447
 x_7_4 <= 214
 x_7_5 <= 240
 x_7_6 <= 219
 x_7_7 <= 68
 x_7_8 <= 279
 x_7_9 <= 148
Binaries
y_0
y_1
y_2
y_3
y_4
y_5
y_6
y_7
z_0
z_1
z_2
End
